21° run output:
{
    "Function": "kroB750.tsp",
    "Problem dimension": [
        445,
        100,
        586,
        257,
        686,
        109,
        470,
        122,
        346,
        255,
        668,
        617,
        380,
        656,
        373,
        53,
        335,
        24,
        487,
        437,
        341,
        51,
        284,
        693,
        271,
        457,
        667,
        450,
        727,
        61,
        58,
        9,
        59,
        529,
        417,
        684,
        340,
        415,
        572,
        526,
        16,
        338,
        265,
        216,
        364,
        519,
        275,
        525,
        185,
        3,
        722,
        621,
        666,
        192,
        279,
        406,
        119,
        13,
        611,
        492,
        290,
        544,
        99,
        438,
        149,
        310,
        166,
        518,
        689,
        550,
        40,
        354,
        321,
        615,
        384,
        626,
        429,
        4,
        567,
        546,
        66,
        193,
        223,
        681,
        47,
        651,
        227,
        480,
        635,
        50,
        642,
        350,
        522,
        573,
        436,
        575,
        201,
        115,
        153,
        705,
        325,
        709,
        587,
        228,
        106,
        574,
        180,
        150,
        131,
        599,
        663,
        213,
        63,
        614,
        56,
        724,
        34,
        439,
        77,
        554,
        584,
        297,
        362,
        252,
        365,
        597,
        539,
        540,
        712,
        404,
        142,
        696,
        35,
        396,
        418,
        465,
        0,
        531,
        260,
        500,
        649,
        571,
        735,
        342,
        98,
        706,
        561,
        469,
        311,
        54,
        8,
        26,
        132,
        199,
        744,
        195,
        117,
        451,
        212,
        467,
        120,
        93,
        137,
        590,
        135,
        48,
        361,
        339,
        616,
        428,
        569,
        15,
        125,
        682,
        20,
        449,
        312,
        231,
        548,
        664,
        114,
        171,
        161,
        723,
        478,
        280,
        624,
        84,
        442,
        196,
        197,
        85,
        374,
        650,
        578,
        258,
        225,
        631,
        460,
        482,
        431,
        349,
        303,
        694,
        506,
        547,
        301,
        326,
        665,
        619,
        453,
        484,
        563,
        101,
        734,
        19,
        720,
        593,
        202,
        62,
        444,
        532,
        419,
        596,
        215,
        702,
        443,
        551,
        41,
        152,
        471,
        583,
        71,
        638,
        154,
        707,
        292,
        416,
        661,
        49,
        102,
        637,
        221,
        366,
        511,
        517,
        523,
        73,
        276,
        146,
        690,
        359,
        191,
        634,
        158,
        456,
        78,
        512,
        67,
        730,
        283,
        496,
        655,
        510,
        388,
        261,
        403,
        748,
        70,
        31,
        367,
        598,
        230,
        704,
        147,
        240,
        143,
        498,
        495,
        739,
        278,
        745,
        74,
        169,
        502,
        600,
        140,
        151,
        203,
        409,
        411,
        206,
        322,
        641,
        324,
        670,
        697,
        729,
        103,
        2,
        198,
        503,
        501,
        242,
        267,
        688,
        145,
        372,
        246,
        123,
        387,
        141,
        7,
        291,
        397,
        294,
        566,
        259,
        472,
        528,
        647,
        562,
        43,
        580,
        733,
        188,
        700,
        176,
        170,
        608,
        355,
        336,
        68,
        604,
        172,
        533,
        591,
        268,
        714,
        508,
        262,
        422,
        394,
        659,
        585,
        218,
        309,
        490,
        184,
        715,
        224,
        358,
        677,
        298,
        217,
        530,
        299,
        28,
        133,
        1,
        5,
        32,
        222,
        285,
        461,
        701,
        345,
        168,
        307,
        139,
        269,
        737,
        287,
        156,
        29,
        383,
        515,
        620,
        243,
        183,
        553,
        356,
        630,
        433,
        577,
        718,
        538,
        320,
        375,
        430,
        565,
        214,
        314,
        302,
        640,
        691,
        736,
        564,
        52,
        491,
        126,
        236,
        235,
        699,
        742,
        232,
        710,
        371,
        108,
        351,
        685,
        740,
        306,
        207,
        111,
        479,
        105,
        17,
        555,
        499,
        91,
        124,
        401,
        662,
        477,
        155,
        719,
        348,
        421,
        39,
        627,
        334,
        413,
        654,
        266,
        721,
        606,
        669,
        628,
        629,
        249,
        42,
        134,
        674,
        732,
        264,
        395,
        333,
        466,
        210,
        746,
        165,
        25,
        657,
        514,
        427,
        424,
        175,
        250,
        452,
        159,
        486,
        138,
        46,
        610,
        182,
        382,
        88,
        95,
        76,
        728,
        504,
        241,
        79,
        162,
        556,
        368,
        263,
        237,
        274,
        675,
        23,
        483,
        613,
        559,
        612,
        272,
        104,
        622,
        558,
        507,
        186,
        581,
        389,
        239,
        468,
        680,
        412,
        18,
        658,
        253,
        485,
        537,
        136,
        55,
        44,
        393,
        129,
        112,
        308,
        687,
        625,
        194,
        717,
        703,
        328,
        36,
        475,
        107,
        247,
        89,
        127,
        521,
        33,
        618,
        323,
        167,
        288,
        234,
        524,
        601,
        579,
        57,
        695,
        731,
        286,
        653,
        402,
        594,
        157,
        435,
        743,
        725,
        474,
        116,
        636,
        38,
        527,
        179,
        534,
        256,
        45,
        110,
        200,
        386,
        377,
        317,
        304,
        568,
        646,
        399,
        648,
        251,
        390,
        118,
        360,
        749,
        10,
        592,
        80,
        233,
        441,
        407,
        560,
        289,
        582,
        464,
        605,
        277,
        713,
        344,
        295,
        481,
        672,
        446,
        282,
        144,
        644,
        296,
        576,
        432,
        609,
        447,
        69,
        12,
        623,
        476,
        535,
        379,
        408,
        353,
        520,
        595,
        607,
        708,
        673,
        652,
        455,
        493,
        488,
        385,
        219,
        11,
        509,
        27,
        181,
        423,
        6,
        14,
        148,
        434,
        81,
        698,
        543,
        462,
        639,
        160,
        174,
        177,
        463,
        711,
        352,
        516,
        454,
        513,
        542,
        113,
        458,
        293,
        363,
        414,
        94,
        337,
        332,
        208,
        319,
        671,
        316,
        440,
        187,
        281,
        391,
        588,
        738,
        130,
        405,
        645,
        87,
        545,
        726,
        357,
        90,
        128,
        204,
        602,
        473,
        300,
        64,
        229,
        376,
        329,
        305,
        633,
        82,
        549,
        378,
        536,
        398,
        190,
        741,
        178,
        381,
        238,
        205,
        660,
        425,
        270,
        315,
        494,
        678,
        557,
        72,
        121,
        692,
        21,
        426,
        30,
        489,
        86,
        410,
        343,
        248,
        497,
        505,
        459,
        75,
        273,
        369,
        96,
        97,
        683,
        541,
        83,
        189,
        330,
        164,
        245,
        173,
        92,
        318,
        570,
        254,
        716,
        331,
        552,
        747,
        22,
        643,
        65,
        448,
        400,
        163,
        313,
        603,
        244,
        589,
        211,
        37,
        420,
        370,
        679,
        220,
        676,
        60,
        327,
        632,
        209,
        347,
        226,
        392
    ],
    "Global Optimum": 0,
    "Algorithm": "Genetic algorithm",
    "Parameters": {
        "population": 30,
        "offspring": 30,
        "mutation probability": 0.0013333333333333333,
        "crossover probability": 0.9
    },
    "Fitness": 898389,
    "Solution": [
        445,
        100,
        586,
        257,
        686,
        109,
        470,
        122,
        346,
        255,
        668,
        617,
        380,
        656,
        373,
        53,
        335,
        24,
        487,
        437,
        341,
        51,
        284,
        693,
        271,
        457,
        667,
        450,
        727,
        61,
        58,
        9,
        59,
        529,
        417,
        684,
        340,
        415,
        572,
        526,
        16,
        338,
        265,
        216,
        364,
        519,
        275,
        525,
        185,
        3,
        722,
        621,
        666,
        192,
        279,
        406,
        119,
        13,
        611,
        492,
        290,
        544,
        99,
        438,
        149,
        310,
        166,
        518,
        689,
        550,
        40,
        354,
        321,
        615,
        384,
        626,
        429,
        4,
        567,
        546,
        66,
        193,
        223,
        681,
        47,
        651,
        227,
        480,
        635,
        50,
        642,
        350,
        522,
        573,
        436,
        575,
        201,
        115,
        153,
        705,
        325,
        709,
        587,
        228,
        106,
        574,
        180,
        150,
        131,
        599,
        663,
        213,
        63,
        614,
        56,
        724,
        34,
        439,
        77,
        554,
        584,
        297,
        362,
        252,
        365,
        597,
        539,
        540,
        712,
        404,
        142,
        696,
        35,
        396,
        418,
        465,
        0,
        531,
        260,
        500,
        649,
        571,
        735,
        342,
        98,
        706,
        561,
        469,
        311,
        54,
        8,
        26,
        132,
        199,
        744,
        195,
        117,
        451,
        212,
        467,
        120,
        93,
        137,
        590,
        135,
        48,
        361,
        339,
        616,
        428,
        569,
        15,
        125,
        682,
        20,
        449,
        312,
        231,
        548,
        664,
        114,
        171,
        161,
        723,
        478,
        280,
        624,
        84,
        442,
        196,
        197,
        85,
        374,
        650,
        578,
        258,
        225,
        631,
        460,
        482,
        431,
        349,
        303,
        694,
        506,
        547,
        301,
        326,
        665,
        619,
        453,
        484,
        563,
        101,
        734,
        19,
        720,
        593,
        202,
        62,
        444,
        532,
        419,
        596,
        215,
        702,
        443,
        551,
        41,
        152,
        471,
        583,
        71,
        638,
        154,
        707,
        292,
        416,
        661,
        49,
        102,
        637,
        221,
        366,
        511,
        517,
        523,
        73,
        276,
        146,
        690,
        359,
        191,
        634,
        158,
        456,
        78,
        512,
        67,
        730,
        283,
        496,
        655,
        510,
        388,
        261,
        403,
        748,
        70,
        31,
        367,
        598,
        230,
        704,
        147,
        240,
        143,
        498,
        495,
        739,
        278,
        745,
        74,
        169,
        502,
        600,
        140,
        151,
        203,
        409,
        411,
        206,
        322,
        641,
        324,
        670,
        697,
        729,
        103,
        2,
        198,
        503,
        501,
        242,
        267,
        688,
        145,
        372,
        246,
        123,
        387,
        141,
        7,
        291,
        397,
        294,
        566,
        259,
        472,
        528,
        647,
        562,
        43,
        580,
        733,
        188,
        700,
        176,
        170,
        608,
        355,
        336,
        68,
        604,
        172,
        533,
        591,
        268,
        714,
        508,
        262,
        422,
        394,
        659,
        585,
        218,
        309,
        490,
        184,
        715,
        224,
        358,
        677,
        298,
        217,
        530,
        299,
        28,
        133,
        1,
        5,
        32,
        222,
        285,
        461,
        701,
        345,
        168,
        307,
        139,
        269,
        737,
        287,
        156,
        29,
        383,
        515,
        620,
        243,
        183,
        553,
        356,
        630,
        433,
        577,
        718,
        538,
        320,
        375,
        430,
        565,
        214,
        314,
        302,
        640,
        691,
        736,
        564,
        52,
        491,
        126,
        236,
        235,
        699,
        742,
        232,
        710,
        371,
        108,
        351,
        685,
        740,
        306,
        207,
        111,
        479,
        105,
        17,
        555,
        499,
        91,
        124,
        401,
        662,
        477,
        155,
        719,
        348,
        421,
        39,
        627,
        334,
        413,
        654,
        266,
        721,
        606,
        669,
        628,
        629,
        249,
        42,
        134,
        674,
        732,
        264,
        395,
        333,
        466,
        210,
        746,
        165,
        25,
        657,
        514,
        427,
        424,
        175,
        250,
        452,
        159,
        486,
        138,
        46,
        610,
        182,
        382,
        88,
        95,
        76,
        728,
        504,
        241,
        79,
        162,
        556,
        368,
        263,
        237,
        274,
        675,
        23,
        483,
        613,
        559,
        612,
        272,
        104,
        622,
        558,
        507,
        186,
        581,
        389,
        239,
        468,
        680,
        412,
        18,
        658,
        253,
        485,
        537,
        136,
        55,
        44,
        393,
        129,
        112,
        308,
        687,
        625,
        194,
        717,
        703,
        328,
        36,
        475,
        107,
        247,
        89,
        127,
        521,
        33,
        618,
        323,
        167,
        288,
        234,
        524,
        601,
        579,
        57,
        695,
        731,
        286,
        653,
        402,
        594,
        157,
        435,
        743,
        725,
        474,
        116,
        636,
        38,
        527,
        179,
        534,
        256,
        45,
        110,
        200,
        386,
        377,
        317,
        304,
        568,
        646,
        399,
        648,
        251,
        390,
        118,
        360,
        749,
        10,
        592,
        80,
        233,
        441,
        407,
        560,
        289,
        582,
        464,
        605,
        277,
        713,
        344,
        295,
        481,
        672,
        446,
        282,
        144,
        644,
        296,
        576,
        432,
        609,
        447,
        69,
        12,
        623,
        476,
        535,
        379,
        408,
        353,
        520,
        595,
        607,
        708,
        673,
        652,
        455,
        493,
        488,
        385,
        219,
        11,
        509,
        27,
        181,
        423,
        6,
        14,
        148,
        434,
        81,
        698,
        543,
        462,
        639,
        160,
        174,
        177,
        463,
        711,
        352,
        516,
        454,
        513,
        542,
        113,
        458,
        293,
        363,
        414,
        94,
        337,
        332,
        208,
        319,
        671,
        316,
        440,
        187,
        281,
        391,
        588,
        738,
        130,
        405,
        645,
        87,
        545,
        726,
        357,
        90,
        128,
        204,
        602,
        473,
        300,
        64,
        229,
        376,
        329,
        305,
        633,
        82,
        549,
        378,
        536,
        398,
        190,
        741,
        178,
        381,
        238,
        205,
        660,
        425,
        270,
        315,
        494,
        678,
        557,
        72,
        121,
        692,
        21,
        426,
        30,
        489,
        86,
        410,
        343,
        248,
        497,
        505,
        459,
        75,
        273,
        369,
        96,
        97,
        683,
        541,
        83,
        189,
        330,
        164,
        245,
        173,
        92,
        318,
        570,
        254,
        716,
        331,
        552,
        747,
        22,
        643,
        65,
        448,
        400,
        163,
        313,
        603,
        244,
        589,
        211,
        37,
        420,
        370,
        679,
        220,
        676,
        60,
        327,
        632,
        209,
        347,
        226,
        392
    ],
    "Nb of functions evaluations": 400020,
    "Computational time in seconds": 3169.9633798599243,
    "Stopping criterion in evaluations": 400000
}